V_100_7.txt

VEHICLE     CAPACITY  LOCATIONS  CUSTOMER  OPTIONS  PRIORITIES  NUMTYPS
10		150		97		100		152		3		4

CUSTOMER  DEMAND
0	 18
1	 20
2	 18
3	 15
4	 13
5	 10
6	 13
7	 16
8	 11
9	 18
10	 11
11	 14
12	 18
13	 16
14	 20
15	 20
16	 12
17	 11
18	 15
19	 14
20	 10
21	 19
22	 15
23	 16
24	 19
25	 19
26	 19
27	 10
28	 20
29	 16
30	 18
31	 19
32	 16
33	 20
34	 13
35	 19
36	 12
37	 17
38	 13
39	 16
40	 11
41	 14
42	 13
43	 17
44	 13
45	 14
46	 10
47	 15
48	 12
49	 19
50	 19
51	 20
52	 11
53	 12
54	 14
55	 20
56	 14
57	 18
58	 11
59	 15
60	 19
61	 16
62	 12
63	 16
64	 16
65	 17
66	 11
67	 11
68	 12
69	 15
70	 20
71	 18
72	 19
73	 16
74	 16
75	 11
76	 18
77	 13
78	 12
79	 19
80	 15
81	 11
82	 19
83	 14
84	 18
85	 11
86	 16
87	 10
88	 14
89	 17
90	 18
91	 10
92	 14
93	 19
94	 17
95	 14
96	 16
97	 18
98	 10
99	 11

LOCATION  XCOORD  YCOORD  CAP  READY  DUE  TYP  SERVICETIME
0		35		33		-1		0		720	 0		0
1		14		19		-1		285		345		 2		6
2		37		3		-1		441		501		 2		6
3		25		11		-1		263		323		 2		6
4		18		20		-1		344		404		 2		6
5		39		41		-1		129		189		 2		6
6		20		45		-1		152		212		 2		6
7		5		16		-1		79		139		 2		6
8		7		42		-1		187		247		 2		6
9		24		25		-1		134		194		 2		6
10		42		6		-1		102		162		 2		6
11		42		3		-1		348		408		 2		6
12		8		36		-1		271		331		 2		6
13		35		46		-1		30		90		 2		6
14		10		9		-1		139		199		 2		6
15		29		21		-1		621		681		 2		6
16		16		1		-1		294		354		 2		6
17		48		5		-1		418		478		 2		6
18		14		2		-1		373		433		 2		6
19		43		11		-1		576		636		 2		6
20		13		1		-1		448		508		 2		6
21		49		29		-1		163		223		 2		6
22		9		10		-1		163		223		 2		6
23		47		18		-1		584		644		 2		6
24		43		20		-1		325		385		 2		6
25		12		1		-1		470		530		 2		6
26		41		5		-1		214		274		 2		6
27		20		13		-1		418		478		 2		6
28		46		41		-1		316		376		 2		6
29		8		14		-1		558		618		 2		6
30		17		49		-1		349		409		 2		6
31		23		18		-1		56		116		 2		6
32		8		41		-1		467		527		 2		6
33		47		29		-1		483		543		 2		6
34		7		11		-1		485		545		 2		6
35		2		35		-1		332		392		 2		6
36		36		23		-1		392		452		 2		6
37		20		30		-1		268		328		 2		6
38		27		15		-1		352		412		 2		6
39		11		32		-1		359		419		 2		6
40		3		18		-1		338		398		 2		6
41		14		19		-1		427		487		 2		6
42		38		32		-1		447		507		 2		6
43		23		27		-1		359		419		 2		6
44		50		19		-1		359		419		 2		6
45		45		41		-1		585		645		 2		6
46		5		32		-1		219		279		 2		6
47		13		27		-1		501		561		 2		6
48		40		49		-1		332		392		 2		6
49		12		5		-1		478		538		 2		6
50		15		27		-1		126		186		 2		6
51		13		21		-1		56		116		 2		6
52		37		39		-1		467		527		 2		6
53		42		11		-1		546		606		 2		6
54		20		4		-1		126		186		 2		6
55		17		44		-1		559		619		 2		6
56		30		28		-1		537		597		 2		6
57		14		7		-1		604		664		 2		6
58		12		27		-1		158		218		 2		6
59		12		44		-1		233		293		 2		6
60		46		50		-1		620		680		 2		6
61		42		12		-1		482		542		 2		6
62		7		47		-1		160		220		 2		6
63		10		2		-1		640		700		 2		6
64		15		27		-1		551		611		 2		6
65		2		6		-1		419		479		 2		6
66		26		13		-1		515		575		 2		6
67		13		19		-1		511		571		 2		6
68		41		15		-1		402		462		 2		6
69		16		2		-1		462		522		 2		6
70		46		41		-1		380		440		 2		6
71		26		40		-1		188		248		 2		6
72		27		44		-1		185		245		 2		6
73		7		11		-1		186		246		 2		6
74		17		18		-1		527		587		 2		6
75		29		46		-1		258		318		 2		6
76		6		48		-1		621		681		 2		6
77		41		13		4		89		329		 1		4
78		9		22		3		208		448		 1		4
79		44		12		5		120		360		 1		4
80		8		44		4		378		618		 1		4
81		43		35		3		126		366		 1		4
82		35		26		3		275		515		 1		4
83		41		6		4		83		323		 1		4
84		33		40		3		75		315		 1		4
85		7		25		3		320		560		 1		4
86		24		26		4		2		242		 1		4
87		29		10		3		472		712		 1		4
88		23		35		3		362		602		 1		4
89		42		26		3		357		597		 1		4
90		21		8		4		375		615		 1		4
91		11		33		5		355		595		 1		4
92		44		42		4		20		260		 1		4
93		29		9		3		332		572		 1		4
94		26		7		5		426		666		 1		4
95		38		35		5		174		414		 1		4
96		9		25		3		257		497		 1		4
OPTION  LOCATION  CUSTOMER  PRIO  SERVICETIME   COST
0		94		0		0		2		0
1		86		1		0		2		0
2		89		2		0		2		0
3		91		3		0		2		0
4		95		4		0		2		0
5		82		5		0		2		0
6		81		6		0		2		0
7		90		7		0		2		0
8		95		8		0		2		0
9		88		9		0		2		0
10		85		10		0		2		0
11		85		11		0		2		0
12		77		12		0		2		0
13		96		13		0		2		0
14		91		14		0		2		0
15		90		15		0		2		0
16		83		16		0		2		0
17		82		17		0		2		0
18		90		18		0		2		0
19		91		19		0		2		0
20		89		20		0		2		0
21		82		21		0		2		0
22		86		22		0		2		0
23		89		23		0		2		0
24		1		24		0		5		0
25		2		25		0		5		0
26		3		26		0		5		0
27		4		27		0		5		0
28		5		28		0		5		0
29		6		29		0		5		0
30		7		30		0		5		0
31		8		31		0		5		0
32		9		32		0		5		0
33		10		33		0		5		0
34		11		34		0		5		0
35		12		35		0		5		0
36		13		36		0		5		0
37		14		37		0		5		0
38		15		38		0		5		0
39		16		39		0		5		0
40		17		40		0		5		0
41		18		41		0		5		0
42		19		42		0		5		0
43		20		43		0		5		0
44		21		44		0		5		0
45		22		45		0		5		0
46		23		46		0		5		0
47		24		47		0		5		0
48		25		48		0		5		0
49		93		48		1		2		0
50		26		49		0		5		0
51		87		49		1		2		0
52		27		50		1		5		0
53		94		50		0		2		0
54		28		51		1		5		0
55		81		51		0		2		0
56		29		52		0		5		0
57		96		52		1		2		0
58		30		53		0		5		0
59		89		53		1		2		0
60		31		54		0		5		0
61		79		54		1		2		0
62		32		55		1		5		0
63		77		55		0		2		0
64		33		56		0		5		0
65		95		56		1		2		0
66		34		57		0		5		0
67		79		57		1		2		0
68		35		58		0		5		0
69		78		58		1		2		0
70		36		59		0		5		0
71		89		59		1		2		0
72		37		60		0		5		0
73		88		60		1		2		0
74		38		61		1		5		0
75		94		61		0		2		0
76		39		62		0		5		0
77		80		62		1		2		0
78		40		63		0		5		0
79		82		63		1		2		0
80		41		64		0		5		0
81		87		64		1		2		0
82		42		65		1		5		0
83		89		65		0		2		0
84		43		66		0		5		0
85		93		66		1		2		0
86		44		67		0		5		0
87		82		67		1		2		0
88		45		68		1		5		0
89		95		68		0		2		0
90		46		69		0		5		0
91		78		69		1		2		0
92		47		70		1		5		0
93		89		70		0		2		0
94		48		71		0		5		0
95		81		71		1		2		0
96		49		72		1		5		0
97		94		72		0		2		0
98		50		73		1		5		0
99		82		73		0		2		0
100		51		74		0		5		0
101		91		74		1		2		0
102		52		75		0		5		0
103		95		75		1		2		0
104		53		76		1		5		0
105		93		76		0		2		0
106		54		77		0		5		0
107		78		77		1		2		0
108		55		78		1		5		0
109		91		78		0		2		0
110		56		79		1		5		0
111		84		79		0		2		0
112		57		80		0		5		0
113		87		80		1		2		0
114		58		81		1		5		0
115		81		81		0		2		0
116		59		82		1		5		0
117		79		82		0		2		0
118		60		83		0		5		0
119		81		83		1		2		0
120		61		84		1		5		0
121		87		84		0		2		0
122		62		85		0		5		0
123		95		85		1		2		0
124		63		86		0		5		0
125		82		86		1		2		0
126		64		87		1		5		0
127		78		87		0		2		0
128		65		88		1		5		0
129		78		88		0		2		0
130		66		89		0		5		0
131		79		89		1		2		0
132		67		90		1		5		0
133		85		90		0		2		0
134		68		91		0		5		0
135		89		91		1		2		0
136		69		92		0		5		0
137		87		92		1		2		0
138		70		93		0		5		0
139		86		93		1		2		0
140		71		94		0		5		0
141		95		94		1		2		0
142		72		95		1		5		0
143		86		95		0		2		0
144		73		96		1		5		0
145		84		96		0		2		0
146		74		97		0		5		0
147		85		97		1		2		0
148		75		98		0		5		0
149		88		98		1		2		0
150		76		99		1		5		0
151		85		99		0		2		0
